# Solution for model GasLib-40
# Objective value = 6.9360198617385009e+01
loadshed[innode_1] 0
loadshed[innode_2] 0
loadshed[innode_3] 0
loadshed[innode_4] 0
loadshed[innode_5] 0
loadshed[innode_6] 0
loadshed[innode_7] 0
loadshed[innode_8] 0
loadshed[source_1] -4.7092893882141551e-02
loadshed[source_2] 1.0811170891290878e-01
loadshed[source_3] 3.7771909847253959e-01
loadshed[sink_1] 0.768405613529261
loadshed[sink_2] 0
loadshed[sink_3] 0
loadshed[sink_4] 0
loadshed[sink_5] 0
loadshed[sink_6] 0
loadshed[sink_7] 0
loadshed[sink_8] 0
loadshed[sink_9] 5.6397415530185580e-01
loadshed[sink_10] 0
loadshed[sink_11] 0
loadshed[sink_12] 1
loadshed[sink_13] 0
loadshed[sink_14] 0
loadshed[sink_15] 0
loadshed[sink_16] 0
loadshed[sink_17] 0
loadshed[sink_18] 0
loadshed[sink_19] 0
loadshed[sink_20] 0
loadshed[sink_21] 1
loadshed[sink_22] 0
loadshed[sink_23] 0
loadshed[sink_24] 9.0875339503446373e-01
loadshed[sink_25] 0
loadshed[sink_26] 0
loadshed[sink_27] 0
loadshed[sink_28] 0
loadshed[sink_29] 0
flow[source_1,sink_3] 1.6553520645296493e+02
flow[innode_1,sink_16] 1.6354166666666970e+01
flow[innode_6,sink_13] 1.6102606088385130e+01
flow[sink_13,sink_14] -2.5156057828153777e-01
flow[sink_14,sink_10] -1.6605727244947957e+01
flow[sink_25,sink_26] 9.1149372019075088e+01
flow[sink_26,sink_9] 0
flow[sink_9,sink_18] -7.1308393351675683e+00
flow[sink_26,sink_4] 7.4795205352408516e+01
flow[sink_4,sink_20] 5.8441038685741830e+01
flow[sink_18,sink_6] -2.3485006001834236e+01
flow[sink_25,innode_8] -1.3282687311962854e+02
flow[sink_6,sink_7] -59.9808725305744
flow[sink_6,sink_22] 2.0141699862073544e+01
flow[sink_7,sink_24] 1.4922621853738764e+00
flow[sink_22,sink_1] 3.7875331954068776e+00
flow[sink_24,sink_21] 0
flow[sink_21,sink_12] 0
flow[sink_7,sink_5] -7.7827301382614948e+01
flow[sink_5,sink_17] -9.4181468049281619e+01
flow[sink_17,sink_4] 0
flow[sink_17,sink_8] -1.1053563471594828e+02
flow[sink_3,sink_23] 16.3541666666697
flow[sink_8,sink_20] -1.2688980138261495e+02
flow[sink_25,sink_20] 8.4802929363539761e+01
flow[sink_25,sink_15] -7.5582201018037892e+01
flow[sink_15,sink_29] -5.2567386180880078e+01
flow[sink_29,sink_28] 1.6354166666667879e+01
flow[sink_29,sink_2] 5.5723148170491186e+01
flow[sink_2,sink_15] 3.9368981503824443e+01
flow[sink_29,innode_7] -1.4099886768470577e+02
flow[innode_4,sink_19] 37.2707272512377
flow[sink_19,innode_3] 0
flow[innode_4,innode_5] 6.1105833327044479e+01
flow[sink_27,innode_5] -6.1105833327044479e+01
flow[sink_27,sink_19] 4.4751666660377850e+01
flow[sink_10,sink_11] 3.2708333333333641e+01
flow[sink_10,innode_2] -6.5668227244948753e+01
flow[sink_10,innode_3] 0
flow[innode_6,sink_25] -1.6102606088385130e+01
flow[sink_11,innode_1] 1.6354166666666970e+01
flow[sink_19,innode_2] 6.5668227244948753e+01
flow[source_3,innode_4] 98.3765605782822
flow[source_2,innode_7] 1.4099886768470577e+02
flow[sink_3,innode_8] 1.3282687311962854e+02
pressure[innode_1] 7.5880779536537716e+01
pressure[innode_2] 7.9503317872698062e+01
pressure[innode_3] 7.9503317872698062e+01
pressure[innode_4] 81.01325
pressure[innode_5] 8.0971218185717092e+01
pressure[innode_6] 7.5335374049607438e+01
pressure[innode_7] 81.01325
pressure[innode_8] 8.0459929041568685e+01
pressure[source_1] 81.01325
pressure[source_2] 81.01325
pressure[source_3] 81.01325
pressure[sink_1] 1.0132500000000002e+00
pressure[sink_2] 75.8305524213181
pressure[sink_3] 8.0459929041568685e+01
pressure[sink_4] 5.9406121320223292e+01
pressure[sink_5] 3.5089545046721362e+01
pressure[sink_6] 1.8983846050038129e+00
pressure[sink_7] 2.7217790120876013e+00
pressure[sink_8] 4.6276180315539008e+01
pressure[sink_9] 1.01325
pressure[sink_10] 7.6032480844141261e+01
pressure[sink_11] 7.5880779536537716e+01
pressure[sink_12] 1.01325
pressure[sink_13] 7.5246603073237637e+01
pressure[sink_14] 75.2470532623207
pressure[sink_15] 7.5702021373491888e+01
pressure[sink_16] 7.4859129701720036e+01
pressure[sink_17] 4.2105383653188753e+01
pressure[sink_18] 1.2712650207027836e+00
pressure[sink_19] 7.9503317872698062e+01
pressure[sink_20] 5.5118614986238008e+01
pressure[sink_21] 1.01325
pressure[sink_22] 1.2596129618702085e+00
pressure[sink_23] 80.2952110299089
pressure[sink_24] 1.01325
pressure[sink_25] 7.5335374049607438e+01
pressure[sink_26] 6.8915777307361651e+01
pressure[sink_27] 8.0464152680541915e+01
pressure[sink_28] 7.6946800378246479e+01
pressure[sink_29] 7.7242082651863669e+01
interdiction[source_1,sink_3] 0
interdiction[innode_1,sink_16] 0
interdiction[innode_6,sink_13] 0
interdiction[sink_13,sink_14] 0
interdiction[sink_14,sink_10] 0
interdiction[sink_25,sink_26] 0
interdiction[sink_26,sink_9] 1
interdiction[sink_9,sink_18] 0
interdiction[sink_26,sink_4] 0
interdiction[sink_4,sink_20] 0
interdiction[sink_18,sink_6] 0
interdiction[sink_25,innode_8] 0
interdiction[sink_6,sink_7] 0
interdiction[sink_6,sink_22] 0
interdiction[sink_7,sink_24] 0
interdiction[sink_22,sink_1] 0
interdiction[sink_24,sink_21] 0
interdiction[sink_21,sink_12] 0
interdiction[sink_7,sink_5] 0
interdiction[sink_5,sink_17] 0
interdiction[sink_17,sink_4] 1
interdiction[sink_17,sink_8] 0
interdiction[sink_3,sink_23] 0
interdiction[sink_8,sink_20] 0
interdiction[sink_25,sink_20] 0
interdiction[sink_25,sink_15] 0
interdiction[sink_15,sink_29] 0
interdiction[sink_29,sink_28] 0
interdiction[sink_29,sink_2] 0
interdiction[sink_2,sink_15] 0
interdiction[sink_29,innode_7] 0
interdiction[innode_4,sink_19] 0
interdiction[sink_19,innode_3] 0
interdiction[innode_4,innode_5] 0
interdiction[sink_27,innode_5] 0
interdiction[sink_27,sink_19] 0
interdiction[sink_10,sink_11] 0
interdiction[sink_10,innode_2] 0
interdiction[sink_10,innode_3] 1
interdiction[innode_6,sink_25] 0
interdiction[sink_11,innode_1] 0
interdiction[sink_19,innode_2] 0
interdiction[source_3,innode_4] 0
interdiction[source_2,innode_7] 0
interdiction[sink_3,innode_8] 0
WCcheckFlow[source_1,sink_3] 39
WCcheckFlow[innode_1,sink_16] 1
WCcheckFlow[innode_6,sink_13] 13
WCcheckFlow[sink_13,sink_14] 12
WCcheckFlow[sink_14,sink_10] 11
WCcheckFlow[sink_25,sink_26] 15
WCcheckFlow[sink_26,sink_9] 0
WCcheckFlow[sink_9,sink_18] -1
WCcheckFlow[sink_26,sink_4] 14
WCcheckFlow[sink_4,sink_20] 13
WCcheckFlow[sink_18,sink_6] -2
WCcheckFlow[sink_25,innode_8] -36
WCcheckFlow[sink_6,sink_7] -5
WCcheckFlow[sink_6,sink_22] 2
WCcheckFlow[sink_7,sink_24] 3
WCcheckFlow[sink_22,sink_1] 1
WCcheckFlow[sink_24,sink_21] 2
WCcheckFlow[sink_21,sink_12] 1
WCcheckFlow[sink_7,sink_5] -9
WCcheckFlow[sink_5,sink_17] -10
WCcheckFlow[sink_17,sink_4] 0
WCcheckFlow[sink_17,sink_8] -11
WCcheckFlow[sink_3,sink_23] 1
WCcheckFlow[sink_8,sink_20] -12
WCcheckFlow[sink_25,sink_20] 0
WCcheckFlow[sink_25,sink_15] 6
WCcheckFlow[sink_15,sink_29] 5
WCcheckFlow[sink_29,sink_28] 1
WCcheckFlow[sink_29,sink_2] 1
WCcheckFlow[sink_2,sink_15] 0
WCcheckFlow[sink_29,innode_7] 2
WCcheckFlow[innode_4,sink_19] -4
WCcheckFlow[sink_19,innode_3] 1
WCcheckFlow[innode_4,innode_5] 2
WCcheckFlow[sink_27,innode_5] -1
WCcheckFlow[sink_27,sink_19] 0
WCcheckFlow[sink_10,sink_11] 3
WCcheckFlow[sink_10,innode_2] 7
WCcheckFlow[sink_10,innode_3] 0
WCcheckFlow[innode_6,sink_25] -14
WCcheckFlow[sink_11,innode_1] 2
WCcheckFlow[sink_19,innode_2] -6
WCcheckFlow[source_3,innode_4] -1
WCcheckFlow[source_2,innode_7] -1
WCcheckFlow[sink_3,innode_8] 37
